15
Finite cluster; coordinates in angstrom; see manifest.json
O 0.000000000000 0.000000000000 0.000000000000
H 0.257394100000 -0.743219160000 -0.286811970000
H -0.775172010000 0.131255380000 -0.590799420000
O 0.172834420000 -1.880667380000 1.997301410000
H -0.610035390000 -2.443358180000 1.563664320000
H 0.224072510000 -1.045626280000 1.640171710000
O 1.678585730000 1.886047470000 1.133825580000
H 1.352226120000 1.460492700000 0.495858760000
H 1.352240160000 2.736593130000 1.192321360000
O -2.272435990000 -0.515740110000 -1.598169210000
H -1.835658580000 -1.329136550000 -1.745352700000
H -2.764761390000 -0.209756010000 -0.985695860000
O -1.775087060000 1.729873780000 1.598802930000
H -1.165461450000 1.154949840000 1.175965960000
H -2.575030530000 1.826163510000 1.001764590000
