15
Finite cluster; coordinates in angstrom; see manifest.json
O 0.000000000000 0.000000000000 0.000000000000
H 0.794600000000 -0.517690000000 0.246900000000
H -0.760400000000 -0.497860000000 0.360700000000
O -2.065800000000 -1.486670000000 0.854700000000
H -1.999100000000 -2.398640000000 0.496700000000
H -2.162300000000 -1.541350000000 1.799500000000
O 0.211800000000 2.620440000000 0.578200000000
H 0.089400000000 1.690810000000 0.323000000000
H -0.599400000000 3.086640000000 0.240200000000
O 0.320900000000 0.165910000000 -2.699100000000
H 1.080500000000 -0.363030000000 -3.058500000000
H 0.263800000000 0.033500000000 -1.745900000000
O 2.320200000000 -1.331590000000 0.675700000000
H 3.092100000000 -0.831410000000 0.362200000000
H 2.437900000000 -1.325320000000 1.689800000000
